(set-info :smt-lib-version 2.6)
(set-logic QF_NIA)
(set-info :source |
Generated by: Cristina Borralleras, Daniel Larraz, Albert Oliveras, Enric Rodriguez-Carbonell, Albert Rubio
Generated on: 2017-04-27
Generator: VeryMax
Application: Termination proving
Target solver: barcelogic
|)
(set-info :license "https://creativecommons.org/licenses/by/4.0/")
(set-info :category "industrial")
(set-info :status unknown)
(declare-fun Nl12arg11 () Int)
(declare-fun Nl12arg21 () Int)
(declare-fun Nl12arg31 () Int)
(declare-fun Nl12arg41 () Int)
(declare-fun Nl12arg51 () Int)
(declare-fun Nl12arg12 () Int)
(declare-fun Nl12arg22 () Int)
(declare-fun Nl12arg32 () Int)
(declare-fun Nl12arg42 () Int)
(declare-fun Nl12arg52 () Int)
(declare-fun Nl12arg13 () Int)
(declare-fun Nl12arg23 () Int)
(declare-fun Nl12arg33 () Int)
(declare-fun Nl12arg43 () Int)
(declare-fun Nl12arg53 () Int)
(declare-fun lam0n0 () Int)
(declare-fun lam0n1 () Int)
(declare-fun lam0n2 () Int)
(declare-fun lam0n3 () Int)
(declare-fun lam0n4 () Int)
(declare-fun lam0n5 () Int)
(declare-fun lam0n6 () Int)
(declare-fun lam0n7 () Int)
(declare-fun Nl12CT1 () Int)
(declare-fun Nl12CT2 () Int)
(declare-fun Nl12CT3 () Int)
(declare-fun lam1n0 () Int)
(declare-fun lam1n1 () Int)
(declare-fun lam1n2 () Int)
(declare-fun lam1n3 () Int)
(declare-fun lam1n4 () Int)
(declare-fun lam1n5 () Int)
(declare-fun lam1n6 () Int)
(declare-fun lam1n7 () Int)
(declare-fun lam2n0 () Int)
(declare-fun lam2n1 () Int)
(declare-fun lam2n2 () Int)
(declare-fun lam2n3 () Int)
(declare-fun lam2n4 () Int)
(declare-fun lam2n5 () Int)
(declare-fun lam2n6 () Int)
(declare-fun lam2n7 () Int)
(declare-fun lam3n0 () Int)
(declare-fun lam3n1 () Int)
(declare-fun lam3n2 () Int)
(declare-fun lam3n3 () Int)
(declare-fun lam3n4 () Int)
(declare-fun lam3n5 () Int)
(declare-fun lam3n6 () Int)
(declare-fun lam3n7 () Int)
(declare-fun lam4n0 () Int)
(declare-fun lam4n1 () Int)
(declare-fun lam4n2 () Int)
(declare-fun lam4n3 () Int)
(declare-fun lam4n4 () Int)
(declare-fun lam4n5 () Int)
(declare-fun lam5n0 () Int)
(declare-fun lam5n1 () Int)
(declare-fun lam5n2 () Int)
(declare-fun lam5n3 () Int)
(declare-fun lam5n4 () Int)
(declare-fun lam5n5 () Int)
(declare-fun lam6n0 () Int)
(declare-fun lam6n1 () Int)
(declare-fun lam6n2 () Int)
(declare-fun lam6n3 () Int)
(declare-fun lam6n4 () Int)
(declare-fun lam6n5 () Int)
(declare-fun lam7n0 () Int)
(declare-fun lam7n1 () Int)
(declare-fun lam7n2 () Int)
(declare-fun lam7n3 () Int)
(declare-fun lam7n4 () Int)
(declare-fun lam7n5 () Int)
(declare-fun lam7n6 () Int)
(declare-fun lam7n7 () Int)
(declare-fun lam8n0 () Int)
(declare-fun lam8n1 () Int)
(declare-fun lam8n2 () Int)
(declare-fun lam8n3 () Int)
(declare-fun lam8n4 () Int)
(declare-fun lam8n5 () Int)
(declare-fun lam8n6 () Int)
(declare-fun lam8n7 () Int)
(declare-fun lam9n0 () Int)
(declare-fun lam9n1 () Int)
(declare-fun lam9n2 () Int)
(declare-fun lam9n3 () Int)
(declare-fun lam9n4 () Int)
(declare-fun lam9n5 () Int)
(declare-fun lam9n6 () Int)
(declare-fun lam9n7 () Int)
(declare-fun lam10n0 () Int)
(declare-fun lam10n1 () Int)
(declare-fun lam10n2 () Int)
(declare-fun lam10n3 () Int)
(declare-fun lam10n4 () Int)
(declare-fun lam10n5 () Int)
(declare-fun lam10n6 () Int)
(declare-fun lam10n7 () Int)
(declare-fun lam10n8 () Int)
(declare-fun lam11n0 () Int)
(declare-fun lam11n1 () Int)
(declare-fun lam11n2 () Int)
(declare-fun lam11n3 () Int)
(declare-fun lam11n4 () Int)
(declare-fun lam11n5 () Int)
(declare-fun lam11n6 () Int)
(declare-fun lam11n7 () Int)
(declare-fun lam11n8 () Int)
(declare-fun lam12n0 () Int)
(declare-fun lam12n1 () Int)
(declare-fun lam12n2 () Int)
(declare-fun lam12n3 () Int)
(declare-fun lam12n4 () Int)
(declare-fun lam12n5 () Int)
(declare-fun lam12n6 () Int)
(declare-fun lam12n7 () Int)
(declare-fun lam12n8 () Int)
(declare-fun lam13n0 () Int)
(declare-fun lam13n1 () Int)
(declare-fun lam13n2 () Int)
(declare-fun lam13n3 () Int)
(declare-fun lam13n4 () Int)
(declare-fun lam13n5 () Int)
(declare-fun lam13n6 () Int)
(declare-fun lam13n7 () Int)
(declare-fun lam13n8 () Int)
(declare-fun lam14n0 () Int)
(declare-fun lam14n1 () Int)
(declare-fun lam14n2 () Int)
(declare-fun lam14n3 () Int)
(declare-fun lam14n4 () Int)
(declare-fun lam14n5 () Int)
(declare-fun lam14n6 () Int)
(declare-fun lam14n7 () Int)
(declare-fun lam14n8 () Int)
(declare-fun lam15n0 () Int)
(declare-fun lam15n1 () Int)
(declare-fun lam15n2 () Int)
(declare-fun lam15n3 () Int)
(declare-fun lam15n4 () Int)
(declare-fun lam15n5 () Int)
(declare-fun lam15n6 () Int)
(declare-fun lam15n7 () Int)
(declare-fun lam15n8 () Int)
(declare-fun lam16n0 () Int)
(declare-fun lam16n1 () Int)
(declare-fun lam16n2 () Int)
(declare-fun lam16n3 () Int)
(declare-fun lam16n4 () Int)
(declare-fun lam16n5 () Int)
(declare-fun lam16n6 () Int)
(declare-fun lam16n7 () Int)
(declare-fun lam17n0 () Int)
(declare-fun lam17n1 () Int)
(declare-fun lam17n2 () Int)
(declare-fun lam17n3 () Int)
(declare-fun lam17n4 () Int)
(declare-fun lam17n5 () Int)
(declare-fun lam17n6 () Int)
(declare-fun lam17n7 () Int)
(declare-fun lam18n0 () Int)
(declare-fun lam18n1 () Int)
(declare-fun lam18n2 () Int)
(declare-fun lam18n3 () Int)
(declare-fun lam18n4 () Int)
(declare-fun lam18n5 () Int)
(declare-fun lam18n6 () Int)
(declare-fun lam18n7 () Int)
(declare-fun undef111 () Int)
(declare-fun undef6 () Int)
(declare-fun undef26 () Int)
(declare-fun undef110 () Int)
(declare-fun undef7 () Int)
(declare-fun undef113 () Int)
(declare-fun undef114 () Int)
(declare-fun undef36 () Int)
(declare-fun undef21 () Int)
(declare-fun undef22 () Int)
(declare-fun undef11 () Int)
(declare-fun undef13 () Int)
(declare-fun undef12 () Int)
(declare-fun undef14 () Int)
(declare-fun undef31 () Int)
(declare-fun undef32 () Int)
(declare-fun undef106 () Int)
(declare-fun undef105 () Int)
(declare-fun undef108 () Int)
(declare-fun undef109 () Int)
(declare-fun lam22n0 () Int)
(declare-fun lam22n1 () Int)
(declare-fun lam22n2 () Int)
(declare-fun lam22n3 () Int)
(declare-fun lam22n4 () Int)
(declare-fun lam22n5 () Int)
(declare-fun lam22n6 () Int)
(declare-fun lam22n7 () Int)
(declare-fun RFN1_CT () Int)
(declare-fun RFN1_arg1 () Int)
(declare-fun RFN1_arg2 () Int)
(declare-fun RFN1_arg3 () Int)
(declare-fun RFN1_arg4 () Int)
(declare-fun RFN1_arg5 () Int)
(declare-fun lam20n0 () Int)
(declare-fun lam20n1 () Int)
(declare-fun lam20n2 () Int)
(declare-fun lam20n3 () Int)
(declare-fun lam20n4 () Int)
(declare-fun lam20n5 () Int)
(declare-fun lam20n6 () Int)
(declare-fun lam20n7 () Int)
(declare-fun lam21n0 () Int)
(declare-fun lam21n1 () Int)
(declare-fun lam21n2 () Int)
(declare-fun lam21n3 () Int)
(declare-fun lam21n4 () Int)
(declare-fun lam21n5 () Int)
(declare-fun lam21n6 () Int)
(declare-fun lam21n7 () Int)
(declare-fun lam19n0 () Int)
(declare-fun lam19n1 () Int)
(declare-fun lam19n2 () Int)
(declare-fun lam19n3 () Int)
(declare-fun lam19n4 () Int)
(declare-fun lam19n5 () Int)
(declare-fun lam19n6 () Int)
(declare-fun lam19n7 () Int)
(assert ( and ( <= ( - 1 ) Nl12arg11 ) ( <= Nl12arg11 1 ) ( <= ( - 1 ) Nl12arg21 ) ( <= Nl12arg21 1 ) ( <= ( - 1 ) Nl12arg31 ) ( <= Nl12arg31 1 ) ( <= ( - 1 ) Nl12arg41 ) ( <= Nl12arg41 1 ) ( <= ( - 1 ) Nl12arg51 ) ( <= Nl12arg51 1 ) ( <= ( - 1 ) Nl12arg12 ) ( <= Nl12arg12 1 ) ( <= ( - 1 ) Nl12arg22 ) ( <= Nl12arg22 1 ) ( <= ( - 1 ) Nl12arg32 ) ( <= Nl12arg32 1 ) ( <= ( - 1 ) Nl12arg42 ) ( <= Nl12arg42 1 ) ( <= ( - 1 ) Nl12arg52 ) ( <= Nl12arg52 1 ) ( <= ( - 1 ) Nl12arg13 ) ( <= Nl12arg13 1 ) ( <= ( - 1 ) Nl12arg23 ) ( <= Nl12arg23 1 ) ( <= ( - 1 ) Nl12arg33 ) ( <= Nl12arg33 1 ) ( <= ( - 1 ) Nl12arg43 ) ( <= Nl12arg43 1 ) ( <= ( - 1 ) Nl12arg53 ) ( <= Nl12arg53 1 ) ))
(assert ( or ( and ( >= lam0n0 0 ) ( >= lam0n1 0 ) ( >= lam0n2 0 ) ( >= lam0n3 0 ) ( >= lam0n4 0 ) ( >= lam0n5 0 ) ( >= lam0n6 0 ) ( >= lam0n7 0 ) ( > ( + ( * 3 lam0n0 ) ( * 1 lam0n1 ) ( * 1 lam0n2 ) ( * 2 lam0n3 ) ( * Nl12CT1 lam0n5 ) ( * Nl12CT2 lam0n6 ) ( * Nl12CT3 lam0n7 ) ( - 1 ) ) 0 ) ( = ( + ( * ( - 1 ) lam0n0 ) ( * ( - 1 ) lam0n3 ) ( * Nl12arg11 lam0n5 ) ( * Nl12arg12 lam0n6 ) ( * Nl12arg13 lam0n7 ) ) 0 ) ( = ( + ( * ( - 1 ) lam0n1 ) ( * Nl12arg21 lam0n5 ) ( * Nl12arg22 lam0n6 ) ( * Nl12arg23 lam0n7 ) ) 0 ) ( = ( + ( * 1 lam0n3 ) ( * Nl12arg31 lam0n5 ) ( * Nl12arg32 lam0n6 ) ( * Nl12arg33 lam0n7 ) ) 0 ) ( = ( + ( * Nl12arg41 lam0n5 ) ( * Nl12arg42 lam0n6 ) ( * Nl12arg43 lam0n7 ) ) 0 ) ( = ( + ( * Nl12arg51 lam0n5 ) ( * Nl12arg52 lam0n6 ) ( * Nl12arg53 lam0n7 ) ) 0 ) ( = ( * ( - 1 ) lam0n2 ) 0 ) ( = ( * ( - 1 ) lam0n4 ) 0 ) ) ( and ( >= lam1n0 0 ) ( >= lam1n1 0 ) ( >= lam1n2 0 ) ( >= lam1n3 0 ) ( >= lam1n4 0 ) ( >= lam1n5 0 ) ( >= lam1n6 0 ) ( >= lam1n7 0 ) ( > ( + ( * 3 lam1n0 ) ( * 1 lam1n1 ) ( * 1 lam1n2 ) ( * 2 lam1n3 ) ( * Nl12CT1 lam1n5 ) ( * Nl12CT2 lam1n6 ) ( * Nl12CT3 lam1n7 ) ( - 1 ( + ( + ( + ( + ( + Nl12CT1 ( * Nl12arg11 0 ) ) ( * Nl12arg21 0 ) ) ( * Nl12arg31 0 ) ) ( * Nl12arg41 0 ) ) ( * Nl12arg51 0 ) ) ) ) 0 ) ( = ( + ( * ( - 1 ) lam1n0 ) ( * ( - 1 ) lam1n3 ) ( * Nl12arg11 lam1n5 ) ( * Nl12arg12 lam1n6 ) ( * Nl12arg13 lam1n7 ) ) 0 ) ( = ( + ( * ( - 1 ) lam1n1 ) ( * Nl12arg21 lam1n5 ) ( * Nl12arg22 lam1n6 ) ( * Nl12arg23 lam1n7 ) ) 0 ) ( = ( + ( * 1 lam1n3 ) ( * Nl12arg31 lam1n5 ) ( * Nl12arg32 lam1n6 ) ( * Nl12arg33 lam1n7 ) ) 0 ) ( = ( + ( * Nl12arg41 lam1n5 ) ( * Nl12arg42 lam1n6 ) ( * Nl12arg43 lam1n7 ) ) 0 ) ( = ( + ( * Nl12arg51 lam1n5 ) ( * Nl12arg52 lam1n6 ) ( * Nl12arg53 lam1n7 ) ) 0 ) ( = ( + ( * ( - 1 ) lam1n2 ) ( - ( + 0 ( * Nl12arg11 1 ) ) ) ) 0 ) ( = ( + ( * ( - 1 ) lam1n4 ) ( - ( + 0 ( * Nl12arg21 1 ) ) ) ) 0 ) ( = ( - ( + 0 ( * Nl12arg31 1 ) ) ) 0 ) ( = ( - ( + 0 ( * Nl12arg41 1 ) ) ) 0 ) ( = ( - ( + 0 ( * Nl12arg51 1 ) ) ) 0 ) ) ))
(assert ( or ( and ( >= lam0n0 0 ) ( >= lam0n1 0 ) ( >= lam0n2 0 ) ( >= lam0n3 0 ) ( >= lam0n4 0 ) ( >= lam0n5 0 ) ( >= lam0n6 0 ) ( >= lam0n7 0 ) ( > ( + ( * 3 lam0n0 ) ( * 1 lam0n1 ) ( * 1 lam0n2 ) ( * 2 lam0n3 ) ( * Nl12CT1 lam0n5 ) ( * Nl12CT2 lam0n6 ) ( * Nl12CT3 lam0n7 ) ( - 1 ) ) 0 ) ( = ( + ( * ( - 1 ) lam0n0 ) ( * ( - 1 ) lam0n3 ) ( * Nl12arg11 lam0n5 ) ( * Nl12arg12 lam0n6 ) ( * Nl12arg13 lam0n7 ) ) 0 ) ( = ( + ( * ( - 1 ) lam0n1 ) ( * Nl12arg21 lam0n5 ) ( * Nl12arg22 lam0n6 ) ( * Nl12arg23 lam0n7 ) ) 0 ) ( = ( + ( * 1 lam0n3 ) ( * Nl12arg31 lam0n5 ) ( * Nl12arg32 lam0n6 ) ( * Nl12arg33 lam0n7 ) ) 0 ) ( = ( + ( * Nl12arg41 lam0n5 ) ( * Nl12arg42 lam0n6 ) ( * Nl12arg43 lam0n7 ) ) 0 ) ( = ( + ( * Nl12arg51 lam0n5 ) ( * Nl12arg52 lam0n6 ) ( * Nl12arg53 lam0n7 ) ) 0 ) ( = ( * ( - 1 ) lam0n2 ) 0 ) ( = ( * ( - 1 ) lam0n4 ) 0 ) ) ( and ( >= lam2n0 0 ) ( >= lam2n1 0 ) ( >= lam2n2 0 ) ( >= lam2n3 0 ) ( >= lam2n4 0 ) ( >= lam2n5 0 ) ( >= lam2n6 0 ) ( >= lam2n7 0 ) ( > ( + ( * 3 lam2n0 ) ( * 1 lam2n1 ) ( * 1 lam2n2 ) ( * 2 lam2n3 ) ( * Nl12CT1 lam2n5 ) ( * Nl12CT2 lam2n6 ) ( * Nl12CT3 lam2n7 ) ( - 1 ( + ( + ( + ( + ( + Nl12CT2 ( * Nl12arg12 0 ) ) ( * Nl12arg22 0 ) ) ( * Nl12arg32 0 ) ) ( * Nl12arg42 0 ) ) ( * Nl12arg52 0 ) ) ) ) 0 ) ( = ( + ( * ( - 1 ) lam2n0 ) ( * ( - 1 ) lam2n3 ) ( * Nl12arg11 lam2n5 ) ( * Nl12arg12 lam2n6 ) ( * Nl12arg13 lam2n7 ) ) 0 ) ( = ( + ( * ( - 1 ) lam2n1 ) ( * Nl12arg21 lam2n5 ) ( * Nl12arg22 lam2n6 ) ( * Nl12arg23 lam2n7 ) ) 0 ) ( = ( + ( * 1 lam2n3 ) ( * Nl12arg31 lam2n5 ) ( * Nl12arg32 lam2n6 ) ( * Nl12arg33 lam2n7 ) ) 0 ) ( = ( + ( * Nl12arg41 lam2n5 ) ( * Nl12arg42 lam2n6 ) ( * Nl12arg43 lam2n7 ) ) 0 ) ( = ( + ( * Nl12arg51 lam2n5 ) ( * Nl12arg52 lam2n6 ) ( * Nl12arg53 lam2n7 ) ) 0 ) ( = ( + ( * ( - 1 ) lam2n2 ) ( - ( + 0 ( * Nl12arg12 1 ) ) ) ) 0 ) ( = ( + ( * ( - 1 ) lam2n4 ) ( - ( + 0 ( * Nl12arg22 1 ) ) ) ) 0 ) ( = ( - ( + 0 ( * Nl12arg32 1 ) ) ) 0 ) ( = ( - ( + 0 ( * Nl12arg42 1 ) ) ) 0 ) ( = ( - ( + 0 ( * Nl12arg52 1 ) ) ) 0 ) ) ))
(assert ( or ( and ( >= lam0n0 0 ) ( >= lam0n1 0 ) ( >= lam0n2 0 ) ( >= lam0n3 0 ) ( >= lam0n4 0 ) ( >= lam0n5 0 ) ( >= lam0n6 0 ) ( >= lam0n7 0 ) ( > ( + ( * 3 lam0n0 ) ( * 1 lam0n1 ) ( * 1 lam0n2 ) ( * 2 lam0n3 ) ( * Nl12CT1 lam0n5 ) ( * Nl12CT2 lam0n6 ) ( * Nl12CT3 lam0n7 ) ( - 1 ) ) 0 ) ( = ( + ( * ( - 1 ) lam0n0 ) ( * ( - 1 ) lam0n3 ) ( * Nl12arg11 lam0n5 ) ( * Nl12arg12 lam0n6 ) ( * Nl12arg13 lam0n7 ) ) 0 ) ( = ( + ( * ( - 1 ) lam0n1 ) ( * Nl12arg21 lam0n5 ) ( * Nl12arg22 lam0n6 ) ( * Nl12arg23 lam0n7 ) ) 0 ) ( = ( + ( * 1 lam0n3 ) ( * Nl12arg31 lam0n5 ) ( * Nl12arg32 lam0n6 ) ( * Nl12arg33 lam0n7 ) ) 0 ) ( = ( + ( * Nl12arg41 lam0n5 ) ( * Nl12arg42 lam0n6 ) ( * Nl12arg43 lam0n7 ) ) 0 ) ( = ( + ( * Nl12arg51 lam0n5 ) ( * Nl12arg52 lam0n6 ) ( * Nl12arg53 lam0n7 ) ) 0 ) ( = ( * ( - 1 ) lam0n2 ) 0 ) ( = ( * ( - 1 ) lam0n4 ) 0 ) ) ( and ( >= lam3n0 0 ) ( >= lam3n1 0 ) ( >= lam3n2 0 ) ( >= lam3n3 0 ) ( >= lam3n4 0 ) ( >= lam3n5 0 ) ( >= lam3n6 0 ) ( >= lam3n7 0 ) ( > ( + ( * 3 lam3n0 ) ( * 1 lam3n1 ) ( * 1 lam3n2 ) ( * 2 lam3n3 ) ( * Nl12CT1 lam3n5 ) ( * Nl12CT2 lam3n6 ) ( * Nl12CT3 lam3n7 ) ( - 1 ( + ( + ( + ( + ( + Nl12CT3 ( * Nl12arg13 0 ) ) ( * Nl12arg23 0 ) ) ( * Nl12arg33 0 ) ) ( * Nl12arg43 0 ) ) ( * Nl12arg53 0 ) ) ) ) 0 ) ( = ( + ( * ( - 1 ) lam3n0 ) ( * ( - 1 ) lam3n3 ) ( * Nl12arg11 lam3n5 ) ( * Nl12arg12 lam3n6 ) ( * Nl12arg13 lam3n7 ) ) 0 ) ( = ( + ( * ( - 1 ) lam3n1 ) ( * Nl12arg21 lam3n5 ) ( * Nl12arg22 lam3n6 ) ( * Nl12arg23 lam3n7 ) ) 0 ) ( = ( + ( * 1 lam3n3 ) ( * Nl12arg31 lam3n5 ) ( * Nl12arg32 lam3n6 ) ( * Nl12arg33 lam3n7 ) ) 0 ) ( = ( + ( * Nl12arg41 lam3n5 ) ( * Nl12arg42 lam3n6 ) ( * Nl12arg43 lam3n7 ) ) 0 ) ( = ( + ( * Nl12arg51 lam3n5 ) ( * Nl12arg52 lam3n6 ) ( * Nl12arg53 lam3n7 ) ) 0 ) ( = ( + ( * ( - 1 ) lam3n2 ) ( - ( + 0 ( * Nl12arg13 1 ) ) ) ) 0 ) ( = ( + ( * ( - 1 ) lam3n4 ) ( - ( + 0 ( * Nl12arg23 1 ) ) ) ) 0 ) ( = ( - ( + 0 ( * Nl12arg33 1 ) ) ) 0 ) ( = ( - ( + 0 ( * Nl12arg43 1 ) ) ) 0 ) ( = ( - ( + 0 ( * Nl12arg53 1 ) ) ) 0 ) ) ))
(assert ( or ( and ( not ( <= undef111 0 ) ) ( <= ( + 5 ( * ( - 1 ) undef6 ) ) 0 ) ( <= ( + ( * ( - 1 ) undef26 ) undef110 ) 0 ) ( <= ( + 7 ( * ( - 1 ) undef7 ) ) 0 ) ( <= ( + 7 ( * ( - 1 ) undef110 ) ) 0 ) ( <= ( + 10 ( * ( - 1 ) undef26 ) ) 0 ) ( <= ( + ( + ( + ( + ( + ( + Nl12CT1 ( * Nl12arg11 0 ) ) ( * Nl12arg21 0 ) ) ( * Nl12arg31 5 ) ) ( * Nl12arg41 0 ) ) ( * Nl12arg51 0 ) ) ( * ( + 0 ( * Nl12arg11 1 ) ) undef110 ) ( * ( + 0 ( * Nl12arg21 1 ) ) undef111 ) ( * ( + 0 ( * Nl12arg41 1 ) ) undef113 ) ( * ( + 0 ( * Nl12arg51 1 ) ) undef114 ) ) 0 ) ( <= ( + ( + ( + ( + ( + ( + Nl12CT2 ( * Nl12arg12 0 ) ) ( * Nl12arg22 0 ) ) ( * Nl12arg32 5 ) ) ( * Nl12arg42 0 ) ) ( * Nl12arg52 0 ) ) ( * ( + 0 ( * Nl12arg12 1 ) ) undef110 ) ( * ( + 0 ( * Nl12arg22 1 ) ) undef111 ) ( * ( + 0 ( * Nl12arg42 1 ) ) undef113 ) ( * ( + 0 ( * Nl12arg52 1 ) ) undef114 ) ) 0 ) ( <= ( + ( + ( + ( + ( + ( + Nl12CT3 ( * Nl12arg13 0 ) ) ( * Nl12arg23 0 ) ) ( * Nl12arg33 5 ) ) ( * Nl12arg43 0 ) ) ( * Nl12arg53 0 ) ) ( * ( + 0 ( * Nl12arg13 1 ) ) undef110 ) ( * ( + 0 ( * Nl12arg23 1 ) ) undef111 ) ( * ( + 0 ( * Nl12arg43 1 ) ) undef113 ) ( * ( + 0 ( * Nl12arg53 1 ) ) undef114 ) ) 0 ) ) ( and ( not ( <= undef111 0 ) ) ( <= ( + 5 ( * ( - 1 ) undef6 ) ) 0 ) ( <= ( + ( * ( - 1 ) undef36 ) undef110 ) 0 ) ( <= ( + 7 ( * ( - 1 ) undef7 ) ) 0 ) ( <= ( + 7 ( * ( - 1 ) undef110 ) ) 0 ) ( <= ( + ( - 9 ) ( * ( - 1 ) undef6 ) undef36 ) 0 ) ( <= ( + ( - 7 ) ( * ( - 1 ) undef7 ) undef36 ) 0 ) ( <= ( + 10 ( * ( - 1 ) undef36 ) ) 0 ) ( <= ( + ( + ( + ( + ( + ( + Nl12CT1 ( * Nl12arg11 0 ) ) ( * Nl12arg21 0 ) ) ( * Nl12arg31 5 ) ) ( * Nl12arg41 0 ) ) ( * Nl12arg51 0 ) ) ( * ( + 0 ( * Nl12arg11 1 ) ) undef110 ) ( * ( + 0 ( * Nl12arg21 1 ) ) undef111 ) ( * ( + 0 ( * Nl12arg41 1 ) ) undef113 ) ( * ( + 0 ( * Nl12arg51 1 ) ) undef114 ) ) 0 ) ( <= ( + ( + ( + ( + ( + ( + Nl12CT2 ( * Nl12arg12 0 ) ) ( * Nl12arg22 0 ) ) ( * Nl12arg32 5 ) ) ( * Nl12arg42 0 ) ) ( * Nl12arg52 0 ) ) ( * ( + 0 ( * Nl12arg12 1 ) ) undef110 ) ( * ( + 0 ( * Nl12arg22 1 ) ) undef111 ) ( * ( + 0 ( * Nl12arg42 1 ) ) undef113 ) ( * ( + 0 ( * Nl12arg52 1 ) ) undef114 ) ) 0 ) ( <= ( + ( + ( + ( + ( + ( + Nl12CT3 ( * Nl12arg13 0 ) ) ( * Nl12arg23 0 ) ) ( * Nl12arg33 5 ) ) ( * Nl12arg43 0 ) ) ( * Nl12arg53 0 ) ) ( * ( + 0 ( * Nl12arg13 1 ) ) undef110 ) ( * ( + 0 ( * Nl12arg23 1 ) ) undef111 ) ( * ( + 0 ( * Nl12arg43 1 ) ) undef113 ) ( * ( + 0 ( * Nl12arg53 1 ) ) undef114 ) ) 0 ) ) ( and ( <= ( + 4 ( * ( - 1 ) undef21 ) undef22 ) 0 ) ( not ( <= undef111 0 ) ) ( <= ( + 2 ( * ( - 1 ) undef11 ) undef13 ) 0 ) ( <= ( + 2 ( * ( - 1 ) undef12 ) undef14 ) 0 ) ( <= ( + ( * ( - 1 ) undef21 ) undef110 ) 0 ) ( <= ( + 7 ( * ( - 1 ) undef11 ) ) 0 ) ( <= ( + 7 ( * ( - 1 ) undef12 ) ) 0 ) ( <= ( + 7 ( * ( - 1 ) undef21 ) ) 0 ) ( <= ( + 7 ( * ( - 1 ) undef110 ) ) 0 ) ( <= ( + ( + ( + ( + ( + ( + Nl12CT1 ( * Nl12arg11 0 ) ) ( * Nl12arg21 0 ) ) ( * Nl12arg31 5 ) ) ( * Nl12arg41 0 ) ) ( * Nl12arg51 0 ) ) ( * ( + 0 ( * Nl12arg11 1 ) ) undef110 ) ( * ( + 0 ( * Nl12arg21 1 ) ) undef111 ) ( * ( + 0 ( * Nl12arg41 1 ) ) undef113 ) ( * ( + 0 ( * Nl12arg51 1 ) ) undef114 ) ) 0 ) ( <= ( + ( + ( + ( + ( + ( + Nl12CT2 ( * Nl12arg12 0 ) ) ( * Nl12arg22 0 ) ) ( * Nl12arg32 5 ) ) ( * Nl12arg42 0 ) ) ( * Nl12arg52 0 ) ) ( * ( + 0 ( * Nl12arg12 1 ) ) undef110 ) ( * ( + 0 ( * Nl12arg22 1 ) ) undef111 ) ( * ( + 0 ( * Nl12arg42 1 ) ) undef113 ) ( * ( + 0 ( * Nl12arg52 1 ) ) undef114 ) ) 0 ) ( <= ( + ( + ( + ( + ( + ( + Nl12CT3 ( * Nl12arg13 0 ) ) ( * Nl12arg23 0 ) ) ( * Nl12arg33 5 ) ) ( * Nl12arg43 0 ) ) ( * Nl12arg53 0 ) ) ( * ( + 0 ( * Nl12arg13 1 ) ) undef110 ) ( * ( + 0 ( * Nl12arg23 1 ) ) undef111 ) ( * ( + 0 ( * Nl12arg43 1 ) ) undef113 ) ( * ( + 0 ( * Nl12arg53 1 ) ) undef114 ) ) 0 ) ) ( and ( <= ( + 4 ( * ( - 1 ) undef31 ) undef32 ) 0 ) ( not ( <= undef111 0 ) ) ( <= ( + 2 ( * ( - 1 ) undef11 ) undef13 ) 0 ) ( <= ( + 2 ( * ( - 1 ) undef12 ) undef14 ) 0 ) ( <= ( + ( * ( - 1 ) undef31 ) undef110 ) 0 ) ( <= ( + 7 ( * ( - 1 ) undef11 ) ) 0 ) ( <= ( + 7 ( * ( - 1 ) undef12 ) ) 0 ) ( <= ( + 7 ( * ( - 1 ) undef31 ) ) 0 ) ( <= ( + 7 ( * ( - 1 ) undef110 ) ) 0 ) ( <= ( + ( + ( + ( + ( + ( + Nl12CT1 ( * Nl12arg11 0 ) ) ( * Nl12arg21 0 ) ) ( * Nl12arg31 5 ) ) ( * Nl12arg41 0 ) ) ( * Nl12arg51 0 ) ) ( * ( + 0 ( * Nl12arg11 1 ) ) undef110 ) ( * ( + 0 ( * Nl12arg21 1 ) ) undef111 ) ( * ( + 0 ( * Nl12arg41 1 ) ) undef113 ) ( * ( + 0 ( * Nl12arg51 1 ) ) undef114 ) ) 0 ) ( <= ( + ( + ( + ( + ( + ( + Nl12CT2 ( * Nl12arg12 0 ) ) ( * Nl12arg22 0 ) ) ( * Nl12arg32 5 ) ) ( * Nl12arg42 0 ) ) ( * Nl12arg52 0 ) ) ( * ( + 0 ( * Nl12arg12 1 ) ) undef110 ) ( * ( + 0 ( * Nl12arg22 1 ) ) undef111 ) ( * ( + 0 ( * Nl12arg42 1 ) ) undef113 ) ( * ( + 0 ( * Nl12arg52 1 ) ) undef114 ) ) 0 ) ( <= ( + ( + ( + ( + ( + ( + Nl12CT3 ( * Nl12arg13 0 ) ) ( * Nl12arg23 0 ) ) ( * Nl12arg33 5 ) ) ( * Nl12arg43 0 ) ) ( * Nl12arg53 0 ) ) ( * ( + 0 ( * Nl12arg13 1 ) ) undef110 ) ( * ( + 0 ( * Nl12arg23 1 ) ) undef111 ) ( * ( + 0 ( * Nl12arg43 1 ) ) undef113 ) ( * ( + 0 ( * Nl12arg53 1 ) ) undef114 ) ) 0 ) ) ( and ( not ( <= undef106 0 ) ) ( <= ( + 2 ( * ( - 1 ) undef11 ) undef13 ) 0 ) ( <= ( + 2 ( * ( - 1 ) undef12 ) undef14 ) 0 ) ( <= ( + ( * ( - 1 ) undef11 ) undef105 ) 0 ) ( <= ( + ( * ( - 1 ) undef12 ) undef105 ) 0 ) ( <= ( + 7 ( * ( - 1 ) undef11 ) ) 0 ) ( <= ( + 7 ( * ( - 1 ) undef12 ) ) 0 ) ( <= ( + 7 ( * ( - 1 ) undef105 ) ) 0 ) ( <= ( + ( + ( + ( + ( + ( + Nl12CT1 ( * Nl12arg11 0 ) ) ( * Nl12arg21 0 ) ) ( * Nl12arg31 5 ) ) ( * Nl12arg41 0 ) ) ( * Nl12arg51 0 ) ) ( * ( + 0 ( * Nl12arg11 1 ) ) undef105 ) ( * ( + 0 ( * Nl12arg21 1 ) ) undef106 ) ( * ( + 0 ( * Nl12arg41 1 ) ) undef108 ) ( * ( + 0 ( * Nl12arg51 1 ) ) undef109 ) ) 0 ) ( <= ( + ( + ( + ( + ( + ( + Nl12CT2 ( * Nl12arg12 0 ) ) ( * Nl12arg22 0 ) ) ( * Nl12arg32 5 ) ) ( * Nl12arg42 0 ) ) ( * Nl12arg52 0 ) ) ( * ( + 0 ( * Nl12arg12 1 ) ) undef105 ) ( * ( + 0 ( * Nl12arg22 1 ) ) undef106 ) ( * ( + 0 ( * Nl12arg42 1 ) ) undef108 ) ( * ( + 0 ( * Nl12arg52 1 ) ) undef109 ) ) 0 ) ( <= ( + ( + ( + ( + ( + ( + Nl12CT3 ( * Nl12arg13 0 ) ) ( * Nl12arg23 0 ) ) ( * Nl12arg33 5 ) ) ( * Nl12arg43 0 ) ) ( * Nl12arg53 0 ) ) ( * ( + 0 ( * Nl12arg13 1 ) ) undef105 ) ( * ( + 0 ( * Nl12arg23 1 ) ) undef106 ) ( * ( + 0 ( * Nl12arg43 1 ) ) undef108 ) ( * ( + 0 ( * Nl12arg53 1 ) ) undef109 ) ) 0 ) ) ))
(assert ( or ( and ( and ( >= lam22n0 0 ) ( >= lam22n1 0 ) ( >= lam22n2 0 ) ( >= lam22n3 0 ) ( >= lam22n4 0 ) ( >= lam22n5 0 ) ( >= lam22n6 0 ) ( >= lam22n7 0 ) ( > ( + ( * 3 lam22n0 ) ( * 1 lam22n1 ) ( * 1 lam22n2 ) ( * 2 lam22n3 ) ( * Nl12CT1 lam22n5 ) ( * Nl12CT2 lam22n6 ) ( * Nl12CT3 lam22n7 ) ( - 1 ( - ( + ( + ( + ( + ( + RFN1_CT ( * RFN1_arg1 0 ) ) ( * RFN1_arg2 0 ) ) ( * RFN1_arg3 0 ) ) ( * RFN1_arg4 0 ) ) ( * RFN1_arg5 0 ) ) RFN1_CT ) ) ) 0 ) ( = ( + ( * ( - 1 ) lam22n0 ) ( * ( - 1 ) lam22n3 ) ( * Nl12arg11 lam22n5 ) ( * Nl12arg12 lam22n6 ) ( * Nl12arg13 lam22n7 ) ( - ( - RFN1_arg1 ) ) ) 0 ) ( = ( + ( * ( - 1 ) lam22n1 ) ( * Nl12arg21 lam22n5 ) ( * Nl12arg22 lam22n6 ) ( * Nl12arg23 lam22n7 ) ( - ( - RFN1_arg2 ) ) ) 0 ) ( = ( + ( * 1 lam22n3 ) ( * Nl12arg31 lam22n5 ) ( * Nl12arg32 lam22n6 ) ( * Nl12arg33 lam22n7 ) ( - ( - RFN1_arg3 ) ) ) 0 ) ( = ( + ( * Nl12arg41 lam22n5 ) ( * Nl12arg42 lam22n6 ) ( * Nl12arg43 lam22n7 ) ( - ( - RFN1_arg4 ) ) ) 0 ) ( = ( + ( * Nl12arg51 lam22n5 ) ( * Nl12arg52 lam22n6 ) ( * Nl12arg53 lam22n7 ) ( - ( - RFN1_arg5 ) ) ) 0 ) ( = ( + ( * ( - 1 ) lam22n2 ) ( - ( + 0 ( * RFN1_arg1 1 ) ) ) ) 0 ) ( = ( + ( * ( - 1 ) lam22n4 ) ( - ( + 0 ( * RFN1_arg2 1 ) ) ) ) 0 ) ( = ( - ( + 0 ( * RFN1_arg3 1 ) ) ) 0 ) ( = ( - ( + 0 ( * RFN1_arg4 1 ) ) ) 0 ) ( = ( - ( + 0 ( * RFN1_arg5 1 ) ) ) 0 ) ) ( and ( and ( >= lam20n0 0 ) ( >= lam20n1 0 ) ( >= lam20n2 0 ) ( >= lam20n3 0 ) ( >= lam20n4 0 ) ( >= lam20n5 0 ) ( >= lam20n6 0 ) ( >= lam20n7 0 ) ( > ( + ( * 3 lam20n0 ) ( * 1 lam20n1 ) ( * 1 lam20n2 ) ( * 2 lam20n3 ) ( * Nl12CT1 lam20n5 ) ( * Nl12CT2 lam20n6 ) ( * Nl12CT3 lam20n7 ) ( - 1 ( - RFN1_CT ) ) ) 0 ) ( = ( + ( * ( - 1 ) lam20n0 ) ( * ( - 1 ) lam20n3 ) ( * Nl12arg11 lam20n5 ) ( * Nl12arg12 lam20n6 ) ( * Nl12arg13 lam20n7 ) ( - ( - RFN1_arg1 ) ) ) 0 ) ( = ( + ( * ( - 1 ) lam20n1 ) ( * Nl12arg21 lam20n5 ) ( * Nl12arg22 lam20n6 ) ( * Nl12arg23 lam20n7 ) ( - ( - RFN1_arg2 ) ) ) 0 ) ( = ( + ( * 1 lam20n3 ) ( * Nl12arg31 lam20n5 ) ( * Nl12arg32 lam20n6 ) ( * Nl12arg33 lam20n7 ) ( - ( - RFN1_arg3 ) ) ) 0 ) ( = ( + ( * Nl12arg41 lam20n5 ) ( * Nl12arg42 lam20n6 ) ( * Nl12arg43 lam20n7 ) ( - ( - RFN1_arg4 ) ) ) 0 ) ( = ( + ( * Nl12arg51 lam20n5 ) ( * Nl12arg52 lam20n6 ) ( * Nl12arg53 lam20n7 ) ( - ( - RFN1_arg5 ) ) ) 0 ) ( = ( * ( - 1 ) lam20n2 ) 0 ) ( = ( * ( - 1 ) lam20n4 ) 0 ) ) ( and ( >= lam21n0 0 ) ( >= lam21n1 0 ) ( >= lam21n2 0 ) ( >= lam21n3 0 ) ( >= lam21n4 0 ) ( >= lam21n5 0 ) ( >= lam21n6 0 ) ( >= lam21n7 0 ) ( > ( + ( * 3 lam21n0 ) ( * 1 lam21n1 ) ( * 1 lam21n2 ) ( * 2 lam21n3 ) ( * Nl12CT1 lam21n5 ) ( * Nl12CT2 lam21n6 ) ( * Nl12CT3 lam21n7 ) ( - 1 ( + ( - ( + ( + ( + ( + ( + RFN1_CT ( * RFN1_arg1 0 ) ) ( * RFN1_arg2 0 ) ) ( * RFN1_arg3 0 ) ) ( * RFN1_arg4 0 ) ) ( * RFN1_arg5 0 ) ) RFN1_CT ) 1 ) ) ) 0 ) ( = ( + ( * ( - 1 ) lam21n0 ) ( * ( - 1 ) lam21n3 ) ( * Nl12arg11 lam21n5 ) ( * Nl12arg12 lam21n6 ) ( * Nl12arg13 lam21n7 ) ( - ( - RFN1_arg1 ) ) ) 0 ) ( = ( + ( * ( - 1 ) lam21n1 ) ( * Nl12arg21 lam21n5 ) ( * Nl12arg22 lam21n6 ) ( * Nl12arg23 lam21n7 ) ( - ( - RFN1_arg2 ) ) ) 0 ) ( = ( + ( * 1 lam21n3 ) ( * Nl12arg31 lam21n5 ) ( * Nl12arg32 lam21n6 ) ( * Nl12arg33 lam21n7 ) ( - ( - RFN1_arg3 ) ) ) 0 ) ( = ( + ( * Nl12arg41 lam21n5 ) ( * Nl12arg42 lam21n6 ) ( * Nl12arg43 lam21n7 ) ( - ( - RFN1_arg4 ) ) ) 0 ) ( = ( + ( * Nl12arg51 lam21n5 ) ( * Nl12arg52 lam21n6 ) ( * Nl12arg53 lam21n7 ) ( - ( - RFN1_arg5 ) ) ) 0 ) ( = ( + ( * ( - 1 ) lam21n2 ) ( - ( + 0 ( * RFN1_arg1 1 ) ) ) ) 0 ) ( = ( + ( * ( - 1 ) lam21n4 ) ( - ( + 0 ( * RFN1_arg2 1 ) ) ) ) 0 ) ( = ( - ( + 0 ( * RFN1_arg3 1 ) ) ) 0 ) ( = ( - ( + 0 ( * RFN1_arg4 1 ) ) ) 0 ) ( = ( - ( + 0 ( * RFN1_arg5 1 ) ) ) 0 ) ) ) ) ( and ( >= lam19n0 0 ) ( >= lam19n1 0 ) ( >= lam19n2 0 ) ( >= lam19n3 0 ) ( >= lam19n4 0 ) ( >= lam19n5 0 ) ( >= lam19n6 0 ) ( >= lam19n7 0 ) ( > ( + ( * 3 lam19n0 ) ( * 1 lam19n1 ) ( * 1 lam19n2 ) ( * 2 lam19n3 ) ( * Nl12CT1 lam19n5 ) ( * Nl12CT2 lam19n6 ) ( * Nl12CT3 lam19n7 ) ( - 1 ) ) 0 ) ( = ( + ( * ( - 1 ) lam19n0 ) ( * ( - 1 ) lam19n3 ) ( * Nl12arg11 lam19n5 ) ( * Nl12arg12 lam19n6 ) ( * Nl12arg13 lam19n7 ) ) 0 ) ( = ( + ( * ( - 1 ) lam19n1 ) ( * Nl12arg21 lam19n5 ) ( * Nl12arg22 lam19n6 ) ( * Nl12arg23 lam19n7 ) ) 0 ) ( = ( + ( * 1 lam19n3 ) ( * Nl12arg31 lam19n5 ) ( * Nl12arg32 lam19n6 ) ( * Nl12arg33 lam19n7 ) ) 0 ) ( = ( + ( * Nl12arg41 lam19n5 ) ( * Nl12arg42 lam19n6 ) ( * Nl12arg43 lam19n7 ) ) 0 ) ( = ( + ( * Nl12arg51 lam19n5 ) ( * Nl12arg52 lam19n6 ) ( * Nl12arg53 lam19n7 ) ) 0 ) ( = ( * ( - 1 ) lam19n2 ) 0 ) ( = ( * ( - 1 ) lam19n4 ) 0 ) ) ))
(check-sat)
(exit)
